\ Model UAVstrike
\ LP format - for model browsing. Use MPS format to capture full model detail.
Minimize
  0.1 C70 + 0.1 C71 + 0.1 C72 + 0.1 C73 + 0.1 C74 + 0.1 C75 + 0.1 C76
   + 0.1 C77 + 0.1 C78 + C79
Subject To
 R0: C14 + C17 + C28 + C31 + C42 + C51 = 1
 R1: C2 + C5 + C34 + C37 + C45 + C54 = 1
 R2: C8 + C11 + C22 + C25 + C48 + C57 = 1
 R3: C16 + C19 + C30 + C33 + C44 + C53 = 1
 R4: C4 + C7 + C36 + C39 + C47 + C56 = 1
 R5: C10 + C13 + C24 + C27 + C50 + C59 = 1
 R6: C0 + C1 + C15 + C18 + C29 + C32 + C43 + C52 = 1
 R7: C3 + C6 + C20 + C21 + C35 + C38 + C46 + C55 = 1
 R8: C9 + C12 + C23 + C26 + C40 + C41 + C49 + C58 = 1
 R9: C14 + C17 + C28 + C31 + C42 + C51 <= 1
 R10: C2 + C5 + C34 + C37 + C45 + C54 <= 1
 R11: C8 + C11 + C22 + C25 + C48 + C57 <= 1
 R12: C16 + C19 + C30 + C33 + C44 + C53 <= 1
 R13: C4 + C7 + C36 + C39 + C47 + C56 <= 1
 R14: C10 + C13 + C24 + C27 + C50 + C59 <= 1
 R15: C0 + C1 + C15 + C18 + C29 + C32 + C43 + C52 <= 1
 R16: C3 + C6 + C20 + C21 + C35 + C38 + C46 + C55 <= 1
 R17: C9 + C12 + C23 + C26 + C40 + C41 + C49 + C58 <= 1
 R18: C14 + C15 + C16 + C28 + C29 + C30 + C42 + C43 + C44 <= 1
 R19: C2 + C3 + C4 + C34 + C35 + C36 + C45 + C46 + C47 <= 1
 R20: C8 + C9 + C10 + C22 + C23 + C24 + C48 + C49 + C50 <= 1
 R21: C17 + C18 + C19 + C31 + C32 + C33 + C51 + C52 + C53 <= 1
 R22: C5 + C6 + C7 + C37 + C38 + C39 + C54 + C55 + C56 <= 1
 R23: C11 + C12 + C13 + C25 + C26 + C27 + C57 + C58 + C59 <= 1
 R24: C60 + C62 + C64 + C66 <= 1
 R25: C61 + C63 + C65 + C67 <= 1
 R26: C14 + C15 + C16 + C28 + C29 + C30 + C42 + C43 + C44 + 3 C62 + 3 C64
   + 3 C66 <= 1
 R27: C2 + C3 + C4 + C34 + C35 + C36 + C45 + C46 + C47 + 3 C60 + 3 C64
   + 3 C66 <= 1
 R28: C8 + C9 + C10 + C22 + C23 + C24 + C48 + C49 + C50 + 3 C60 + 3 C62
   + 3 C66 <= 1
 R29: C17 + C18 + C19 + C31 + C32 + C33 + C51 + C52 + C53 + 3 C63 + 3 C65
   + 3 C67 <= 1
 R30: C5 + C6 + C7 + C37 + C38 + C39 + C54 + C55 + C56 + 3 C61 + 3 C65
   + 3 C67 <= 1
 R31: C11 + C12 + C13 + C25 + C26 + C27 + C57 + C58 + C59 + 3 C61 + 3 C63
   + 3 C67 <= 1
 R32: C42 + C43 + C44 + C45 + C46 + C47 + C48 + C49 + C50 + C66 = 1
 R33: C51 + C52 + C53 + C54 + C55 + C56 + C57 + C58 + C59 + C67 = 1
 R34: C0 - C14 - C28 - C42 <= 0
 R35: C1 - C17 - C31 - C51 <= 0
 R36: - C2 + C20 - C34 - C45 <= 0
 R37: - C5 + C21 - C37 - C54 <= 0
 R38: - C8 - C22 + C40 - C48 <= 0
 R39: - C11 - C25 + C41 - C57 <= 0
 R40: 200 C2 + 200 C14 + 200 C28 + 200 C42 - C70 + C73 <= 414
 R41: - 200 C2 - 200 C14 - 200 C28 - 200 C42 - C70 + C73 >= -386
 R42: 200 C2 + 200 C16 + 200 C30 + 200 C44 - C72 + C73 <= 414
 R43: - 200 C2 - 200 C16 - 200 C30 - 200 C44 - C72 + C73 >= -386
 R44: 200 C4 + 200 C14 + 200 C28 + 200 C42 - C70 + C75 <= 404
 R45: - 200 C4 - 200 C14 - 200 C28 - 200 C42 - C70 + C75 >= -396
 R46: 200 C4 + 200 C16 + 200 C30 + 200 C44 - C72 + C75 <= 404
 R47: - 200 C4 - 200 C16 - 200 C30 - 200 C44 - C72 + C75 >= -396
 R48: 200 C5 + 200 C17 + 200 C31 + 200 C51 - C70 + C73 <= 409
 R49: - 200 C5 - 200 C17 - 200 C31 - 200 C51 - C70 + C73 >= -391
 R50: 200 C5 + 200 C19 + 200 C33 + 200 C53 - C72 + C73 <= 409
 R51: - 200 C5 - 200 C19 - 200 C33 - 200 C53 - C72 + C73 >= -391
 R52: 200 C7 + 200 C17 + 200 C31 + 200 C51 - C70 + C75 <= 412
 R53: - 200 C7 - 200 C17 - 200 C31 - 200 C51 - C70 + C75 >= -388
 R54: 200 C7 + 200 C19 + 200 C33 + 200 C53 - C72 + C75 <= 412
 R55: - 200 C7 - 200 C19 - 200 C33 - 200 C53 - C72 + C75 >= -388
 R56: 200 C8 + 200 C14 + 200 C28 + 200 C42 - C70 + C76 <= 420
 R57: - 200 C8 - 200 C14 - 200 C28 - 200 C42 - C70 + C76 >= -380
 R58: 200 C8 + 200 C16 + 200 C30 + 200 C44 - C72 + C76 <= 420
 R59: - 200 C8 - 200 C16 - 200 C30 - 200 C44 - C72 + C76 >= -380
 R60: 200 C10 + 200 C14 + 200 C28 + 200 C42 - C70 + C78 <= 403
 R61: - 200 C10 - 200 C14 - 200 C28 - 200 C42 - C70 + C78 >= -397
 R62: 200 C10 + 200 C16 + 200 C30 + 200 C44 - C72 + C78 <= 403
 R63: - 200 C10 - 200 C16 - 200 C30 - 200 C44 - C72 + C78 >= -397
 R64: 200 C11 + 200 C17 + 200 C31 + 200 C51 - C70 + C76 <= 405
 R65: - 200 C11 - 200 C17 - 200 C31 - 200 C51 - C70 + C76 >= -395
 R66: 200 C11 + 200 C19 + 200 C33 + 200 C53 - C72 + C76 <= 405
 R67: - 200 C11 - 200 C19 - 200 C33 - 200 C53 - C72 + C76 >= -395
 R68: 200 C13 + 200 C17 + 200 C31 + 200 C51 - C70 + C78 <= 413
 R69: - 200 C13 - 200 C17 - 200 C31 - 200 C51 - C70 + C78 >= -387
 R70: 200 C13 + 200 C19 + 200 C33 + 200 C53 - C72 + C78 <= 413
 R71: - 200 C13 - 200 C19 - 200 C33 - 200 C53 - C72 + C78 >= -387
 R72: 200 C2 + 200 C14 + 200 C34 + 200 C45 + C70 - C73 <= 418
 R73: - 200 C2 - 200 C14 - 200 C34 - 200 C45 + C70 - C73 >= -382
 R74: 200 C4 + 200 C14 + 200 C36 + 200 C47 + C70 - C75 <= 418
 R75: - 200 C4 - 200 C14 - 200 C36 - 200 C47 + C70 - C75 >= -382
 R76: 200 C2 + 200 C16 + 200 C34 + 200 C45 + C72 - C73 <= 403
 R77: - 200 C2 - 200 C16 - 200 C34 - 200 C45 + C72 - C73 >= -397
 R78: 200 C4 + 200 C16 + 200 C36 + 200 C47 + C72 - C75 <= 403
 R79: - 200 C4 - 200 C16 - 200 C36 - 200 C47 + C72 - C75 >= -397
 R80: 200 C5 + 200 C17 + 200 C37 + 200 C54 + C70 - C73 <= 412
 R81: - 200 C5 - 200 C17 - 200 C37 - 200 C54 + C70 - C73 >= -388
 R82: 200 C7 + 200 C17 + 200 C39 + 200 C56 + C70 - C75 <= 412
 R83: - 200 C7 - 200 C17 - 200 C39 - 200 C56 + C70 - C75 >= -388
 R84: 200 C5 + 200 C19 + 200 C37 + 200 C54 + C72 - C73 <= 426
 R85: - 200 C5 - 200 C19 - 200 C37 - 200 C54 + C72 - C73 >= -374
 R86: 200 C7 + 200 C19 + 200 C39 + 200 C56 + C72 - C75 <= 426
 R87: - 200 C7 - 200 C19 - 200 C39 - 200 C56 + C72 - C75 >= -374
 R88: 200 C2 + 200 C22 + 200 C34 + 200 C45 - C73 + C76 <= 425
 R89: - 200 C2 - 200 C22 - 200 C34 - 200 C45 - C73 + C76 >= -375
 R90: 200 C4 + 200 C22 + 200 C36 + 200 C47 - C75 + C76 <= 425
 R91: - 200 C4 - 200 C22 - 200 C36 - 200 C47 - C75 + C76 >= -375
 R92: 200 C2 + 200 C24 + 200 C34 + 200 C45 - C73 + C78 <= 408
 R93: - 200 C2 - 200 C24 - 200 C34 - 200 C45 - C73 + C78 >= -392
 R94: 200 C4 + 200 C24 + 200 C36 + 200 C47 - C75 + C78 <= 408
 R95: - 200 C4 - 200 C24 - 200 C36 - 200 C47 - C75 + C78 >= -392
 R96: 200 C5 + 200 C25 + 200 C37 + 200 C54 - C73 + C76 <= 401
 R97: - 200 C5 - 200 C25 - 200 C37 - 200 C54 - C73 + C76 >= -399
 R98: 200 C7 + 200 C25 + 200 C39 + 200 C56 - C75 + C76 <= 401
 R99: - 200 C7 - 200 C25 - 200 C39 - 200 C56 - C75 + C76 >= -399
 R100: 200 C5 + 200 C27 + 200 C37 + 200 C54 - C73 + C78 <= 401
 R101: - 200 C5 - 200 C27 - 200 C37 - 200 C54 - C73 + C78 >= -399
 R102: 200 C7 + 200 C27 + 200 C39 + 200 C56 - C75 + C78 <= 401
 R103: - 200 C7 - 200 C27 - 200 C39 - 200 C56 - C75 + C78 >= -399
 R104: 200 C8 + 200 C22 + 200 C28 + 200 C48 + C70 - C76 <= 411
 R105: - 200 C8 - 200 C22 - 200 C28 - 200 C48 + C70 - C76 >= -389
 R106: 200 C10 + 200 C24 + 200 C28 + 200 C50 + C70 - C78 <= 411
 R107: - 200 C10 - 200 C24 - 200 C28 - 200 C50 + C70 - C78 >= -389
 R108: 200 C8 + 200 C22 + 200 C30 + 200 C48 + C72 - C76 <= 401
 R109: - 200 C8 - 200 C22 - 200 C30 - 200 C48 + C72 - C76 >= -399
 R110: 200 C10 + 200 C24 + 200 C30 + 200 C50 + C72 - C78 <= 401
 R111: - 200 C10 - 200 C24 - 200 C30 - 200 C50 + C72 - C78 >= -399
 R112: 200 C11 + 200 C25 + 200 C31 + 200 C57 + C70 - C76 <= 412
 R113: - 200 C11 - 200 C25 - 200 C31 - 200 C57 + C70 - C76 >= -388
 R114: 200 C13 + 200 C27 + 200 C31 + 200 C59 + C70 - C78 <= 412
 R115: - 200 C13 - 200 C27 - 200 C31 - 200 C59 + C70 - C78 >= -388
 R116: 200 C11 + 200 C25 + 200 C33 + 200 C57 + C72 - C76 <= 403
 R117: - 200 C11 - 200 C25 - 200 C33 - 200 C57 + C72 - C76 >= -397
 R118: 200 C13 + 200 C27 + 200 C33 + 200 C59 + C72 - C78 <= 403
 R119: - 200 C13 - 200 C27 - 200 C33 - 200 C59 + C72 - C78 >= -397
 R120: 200 C8 + 200 C22 + 200 C34 + 200 C48 + C73 - C76 <= 425
 R121: - 200 C8 - 200 C22 - 200 C34 - 200 C48 + C73 - C76 >= -375
 R122: 200 C10 + 200 C24 + 200 C34 + 200 C50 + C73 - C78 <= 425
 R123: - 200 C10 - 200 C24 - 200 C34 - 200 C50 + C73 - C78 >= -375
 R124: 200 C8 + 200 C22 + 200 C36 + 200 C48 + C75 - C76 <= 424
 R125: - 200 C8 - 200 C22 - 200 C36 - 200 C48 + C75 - C76 >= -376
 R126: 200 C10 + 200 C24 + 200 C36 + 200 C50 + C75 - C78 <= 424
 R127: - 200 C10 - 200 C24 - 200 C36 - 200 C50 + C75 - C78 >= -376
 R128: 200 C11 + 200 C25 + 200 C37 + 200 C57 + C73 - C76 <= 410
 R129: - 200 C11 - 200 C25 - 200 C37 - 200 C57 + C73 - C76 >= -390
 R130: 200 C13 + 200 C27 + 200 C37 + 200 C59 + C73 - C78 <= 410
 R131: - 200 C13 - 200 C27 - 200 C37 - 200 C59 + C73 - C78 >= -390
 R132: 200 C11 + 200 C25 + 200 C39 + 200 C57 + C75 - C76 <= 410
 R133: - 200 C11 - 200 C25 - 200 C39 - 200 C57 + C75 - C76 >= -390
 R134: 200 C13 + 200 C27 + 200 C39 + 200 C59 + C75 - C78 <= 410
 R135: - 200 C13 - 200 C27 - 200 C39 - 200 C59 + C75 - C78 >= -390
 R136: 200 C0 + 200 C14 + 200 C28 + 200 C42 - C70 + C71 <= 409
 R137: - 200 C0 - 200 C14 - 200 C28 - 200 C42 - C70 + C71 >= -391
 R138: 200 C1 + 200 C17 + 200 C31 + 200 C51 - C70 + C71 <= 420
 R139: - 200 C1 - 200 C17 - 200 C31 - 200 C51 - C70 + C71 >= -380
 R140: 200 C3 + 200 C14 + 200 C28 + 200 C42 - C70 + C74 <= 427
 R141: - 200 C3 - 200 C14 - 200 C28 - 200 C42 - C70 + C74 >= -373
 R142: 200 C3 + 200 C16 + 200 C30 + 200 C44 - C72 + C74 <= 427
 R143: - 200 C3 - 200 C16 - 200 C30 - 200 C44 - C72 + C74 >= -373
 R144: 200 C6 + 200 C17 + 200 C31 + 200 C51 - C70 + C74 <= 418
 R145: - 200 C6 - 200 C17 - 200 C31 - 200 C51 - C70 + C74 >= -382
 R146: 200 C6 + 200 C19 + 200 C33 + 200 C53 - C72 + C74 <= 418
 R147: - 200 C6 - 200 C19 - 200 C33 - 200 C53 - C72 + C74 >= -382
 R148: 200 C9 + 200 C14 + 200 C28 + 200 C42 - C70 + C77 <= 428
 R149: - 200 C9 - 200 C14 - 200 C28 - 200 C42 - C70 + C77 >= -372
 R150: 200 C9 + 200 C16 + 200 C30 + 200 C44 - C72 + C77 <= 428
 R151: - 200 C9 - 200 C16 - 200 C30 - 200 C44 - C72 + C77 >= -372
 R152: 200 C12 + 200 C17 + 200 C31 + 200 C51 - C70 + C77 <= 409
 R153: - 200 C12 - 200 C17 - 200 C31 - 200 C51 - C70 + C77 >= -391
 R154: 200 C12 + 200 C19 + 200 C33 + 200 C53 - C72 + C77 <= 409
 R155: - 200 C12 - 200 C19 - 200 C33 - 200 C53 - C72 + C77 >= -391
 R156: 200 C2 + 200 C15 + 200 C34 + 200 C45 + C71 - C73 <= 406
 R157: - 200 C2 - 200 C15 - 200 C34 - 200 C45 + C71 - C73 >= -394
 R158: 200 C4 + 200 C15 + 200 C36 + 200 C47 + C71 - C75 <= 406
 R159: - 200 C4 - 200 C15 - 200 C36 - 200 C47 + C71 - C75 >= -394
 R160: 200 C5 + 200 C18 + 200 C37 + 200 C54 + C71 - C73 <= 415
 R161: - 200 C5 - 200 C18 - 200 C37 - 200 C54 + C71 - C73 >= -385
 R162: 200 C7 + 200 C18 + 200 C39 + 200 C56 + C71 - C75 <= 415
 R163: - 200 C7 - 200 C18 - 200 C39 - 200 C56 + C71 - C75 >= -385
 R164: 200 C2 + 200 C20 + 200 C34 + 200 C45 - C73 + C74 <= 428
 R165: - 200 C2 - 200 C20 - 200 C34 - 200 C45 - C73 + C74 >= -372
 R166: 200 C5 + 200 C21 + 200 C37 + 200 C54 - C73 + C74 <= 413
 R167: - 200 C5 - 200 C21 - 200 C37 - 200 C54 - C73 + C74 >= -387
 R168: 200 C2 + 200 C23 + 200 C34 + 200 C45 - C73 + C77 <= 410
 R169: - 200 C2 - 200 C23 - 200 C34 - 200 C45 - C73 + C77 >= -390
 R170: 200 C4 + 200 C23 + 200 C36 + 200 C47 - C75 + C77 <= 410
 R171: - 200 C4 - 200 C23 - 200 C36 - 200 C47 - C75 + C77 >= -390
 R172: 200 C5 + 200 C26 + 200 C37 + 200 C54 - C73 + C77 <= 416
 R173: - 200 C5 - 200 C26 - 200 C37 - 200 C54 - C73 + C77 >= -384
 R174: 200 C7 + 200 C26 + 200 C39 + 200 C56 - C75 + C77 <= 416
 R175: - 200 C7 - 200 C26 - 200 C39 - 200 C56 - C75 + C77 >= -384
 R176: 200 C8 + 200 C22 + 200 C29 + 200 C48 + C71 - C76 <= 422
 R177: - 200 C8 - 200 C22 - 200 C29 - 200 C48 + C71 - C76 >= -378
 R178: 200 C10 + 200 C24 + 200 C29 + 200 C50 + C71 - C78 <= 422
 R179: - 200 C10 - 200 C24 - 200 C29 - 200 C50 + C71 - C78 >= -378
 R180: 200 C11 + 200 C25 + 200 C32 + 200 C57 + C71 - C76 <= 423
 R181: - 200 C11 - 200 C25 - 200 C32 - 200 C57 + C71 - C76 >= -377
 R182: 200 C13 + 200 C27 + 200 C32 + 200 C59 + C71 - C78 <= 423
 R183: - 200 C13 - 200 C27 - 200 C32 - 200 C59 + C71 - C78 >= -377
 R184: 200 C8 + 200 C22 + 200 C35 + 200 C48 + C74 - C76 <= 417
 R185: - 200 C8 - 200 C22 - 200 C35 - 200 C48 + C74 - C76 >= -383
 R186: 200 C10 + 200 C24 + 200 C35 + 200 C50 + C74 - C78 <= 417
 R187: - 200 C10 - 200 C24 - 200 C35 - 200 C50 + C74 - C78 >= -383
 R188: 200 C11 + 200 C25 + 200 C38 + 200 C57 + C74 - C76 <= 420
 R189: - 200 C11 - 200 C25 - 200 C38 - 200 C57 + C74 - C76 >= -380
 R190: 200 C13 + 200 C27 + 200 C38 + 200 C59 + C74 - C78 <= 420
 R191: - 200 C13 - 200 C27 - 200 C38 - 200 C59 + C74 - C78 >= -380
 R192: 200 C8 + 200 C22 + 200 C40 + 200 C48 - C76 + C77 <= 412
 R193: - 200 C8 - 200 C22 - 200 C40 - 200 C48 - C76 + C77 >= -388
 R194: 200 C11 + 200 C25 + 200 C41 + 200 C57 - C76 + C77 <= 403
 R195: - 200 C11 - 200 C25 - 200 C41 - 200 C57 - C76 + C77 >= -397
 R196: 100 C42 - C68 + C70 <= 116
 R197: - 100 C42 - C68 + C70 >= -84
 R198: 100 C43 - C68 + C71 <= 122
 R199: - 100 C43 - C68 + C71 >= -78
 R200: 100 C44 - C68 + C72 <= 127
 R201: - 100 C44 - C68 + C72 >= -73
 R202: 100 C51 - C69 + C70 <= 107
 R203: - 100 C51 - C69 + C70 >= -93
 R204: 100 C52 - C69 + C71 <= 114
 R205: - 100 C52 - C69 + C71 >= -86
 R206: 100 C53 - C69 + C72 <= 101
 R207: - 100 C53 - C69 + C72 >= -99
 R208: 100 C45 - C68 + C73 <= 114
 R209: - 100 C45 - C68 + C73 >= -86
 R210: 100 C46 - C68 + C74 <= 110
 R211: - 100 C46 - C68 + C74 >= -90
 R212: 100 C47 - C68 + C75 <= 118
 R213: - 100 C47 - C68 + C75 >= -82
 R214: 100 C54 - C69 + C73 <= 113
 R215: - 100 C54 - C69 + C73 >= -87
 R216: 100 C55 - C69 + C74 <= 109
 R217: - 100 C55 - C69 + C74 >= -91
 R218: 100 C56 - C69 + C75 <= 115
 R219: - 100 C56 - C69 + C75 >= -85
 R220: 100 C48 - C68 + C76 <= 108
 R221: - 100 C48 - C68 + C76 >= -92
 R222: 100 C49 - C68 + C77 <= 122
 R223: - 100 C49 - C68 + C77 >= -78
 R224: 100 C50 - C68 + C78 <= 109
 R225: - 100 C50 - C68 + C78 >= -91
 R226: 100 C57 - C69 + C76 <= 118
 R227: - 100 C57 - C69 + C76 >= -82
 R228: 100 C58 - C69 + C77 <= 116
 R229: - 100 C58 - C69 + C77 >= -84
 R230: 100 C59 - C69 + C78 <= 118
 R231: - 100 C59 - C69 + C78 >= -82
 R232: C70 - C71 <= -1
 R233: C71 - C72 <= -1
 R234: C73 - C74 <= -1
 R235: C74 - C75 <= -1
 R236: C76 - C77 <= -1
 R237: C77 - C78 <= -1
 R238: 14 C2 + 27 C3 + 4 C4 + 20 C8 + 28 C9 + 3 C10 + 18 C14 + 6 C15
   + 3 C16 + 25 C22 + 10 C23 + 8 C24 + 11 C28 + 22 C29 + C30 + 25 C34
   + 17 C35 + 24 C36 + 16 C42 + 22 C43 + 27 C44 + 14 C45 + 10 C46 + 18 C47
   + 8 C48 + 22 C49 + 9 C50 <= 100
 R239: 9 C5 + 18 C6 + 12 C7 + 5 C11 + 9 C12 + 13 C13 + 12 C17 + 15 C18
   + 26 C19 + C25 + 16 C26 + C27 + 12 C31 + 23 C32 + 3 C33 + 10 C37
   + 20 C38 + 10 C39 + 7 C51 + 14 C52 + C53 + 13 C54 + 9 C55 + 15 C56
   + 18 C57 + 16 C58 + 18 C59 <= 100
Bounds
Binaries
 C0 C1 C2 C3 C4 C5 C6 C7 C8 C9 C10 C11 C12 C13 C14 C15 C16 C17 C18 C19 C20
 C21 C22 C23 C24 C25 C26 C27 C28 C29 C30 C31 C32 C33 C34 C35 C36 C37 C38
 C39 C40 C41 C42 C43 C44 C45 C46 C47 C48 C49 C50 C51 C52 C53 C54 C55 C56
 C57 C58 C59 C60 C61 C62 C63 C64 C65 C66 C67
End
